500
    1    18    18
    2    95    95
    3    19    19
    4    67    67
    5     5     5
    6    77    77
    7    26    26
    8    21    21
    9    15    15
   10    22    22
   11    64    64
   12    74    74
   13    28    28
   14    22    22
   15    18    18
   16    92    92
   17    60    60
   18     7     7
   19    21    21
   20    63    63
   21    10    10
   22    64    64
   23    58    58
   24    64    64
   25     3     3
   26    20    20
   27    71    71
   28    11    11
   29    67    67
   30     4     4
   31    91    91
   32    97    97
   33    72    72
   34    27    27
   35     7     7
   36    11    11
   37    24    24
   38    59    59
   39    49    49
   40    54    54
   41    64    64
   42    46    46
   43    78    78
   44    72    72
   45    47    47
   46    37    37
   47    57    57
   48    81    81
   49    19    19
   50    46    46
   51     7     7
   52     7     7
   53     1     1
   54    33    33
   55    26    26
   56    76    76
   57    60    60
   58    11    11
   59    46    46
   60    53    53
   61    80    80
   62    98    98
   63    42    42
   64    21    21
   65    46    46
   66    89    89
   67     8     8
   68    56    56
   69     3     3
   70    44    44
   71    76    76
   72    82    82
   73    55    55
   74    50    50
   75    47    47
   76    96    96
   77    79    79
   78    55    55
   79    97    97
   80    76    76
   81     2     2
   82    69    69
   83    20    20
   84    50    50
   85    65    65
   86    14    14
   87    12    12
   88    92    92
   89    82    82
   90    95    95
   91    53    53
   92    36    36
   93    40    40
   94     5     5
   95    72    72
   96    45    45
   97    50    50
   98    45    45
   99    23    23
  100    90    90
  101    37    37
  102    56    56
  103    23    23
  104    99    99
  105    16    16
  106     8     8
  107    99    99
  108    98    98
  109    87    87
  110    69    69
  111    98    98
  112    75    75
  113    80    80
  114    27    27
  115    65    65
  116    77    77
  117    71    71
  118    33    33
  119    13    13
  120    32    32
  121    55    55
  122    25    25
  123    81    81
  124    31    31
  125    34    34
  126    82    82
  127     9     9
  128    74    74
  129    42    42
  130    27    27
  131    95    95
  132    50    50
  133    11    11
  134    46    46
  135    29    29
  136     2     2
  137    87    87
  138    73    73
  139    40    40
  140    58    58
  141    60    60
  142    86    86
  143    40    40
  144    44    44
  145     5     5
  146    70    70
  147     6     6
  148    78    78
  149    58    58
  150    79    79
  151    27    27
  152    15    15
  153    33    33
  154    67    67
  155    18    18
  156    14    14
  157    75    75
  158    77    77
  159    33    33
  160    24    24
  161    92    92
  162    64    64
  163    24    24
  164    59    59
  165    33    33
  166    10    10
  167    12    12
  168    59    59
  169    56    56
  170    62    62
  171    96    96
  172    85    85
  173    50    50
  174    91    91
  175    15    15
  176    32    32
  177     9     9
  178    29    29
  179    38    38
  180    95    95
  181    71    71
  182    55    55
  183    15    15
  184    26    26
  185    99    99
  186    58    58
  187    14    14
  188    45    45
  189    63    63
  190    97    97
  191    48    48
  192    63    63
  193    28    28
  194    14    14
  195    99    99
  196    97    97
  197    43    43
  198    81    81
  199    67    67
  200    49    49
  201    84    84
  202    17    17
  203    39    39
  204    30    30
  205     9     9
  206    99    99
  207     3     3
  208    22    22
  209    56    56
  210    48    48
  211    65    65
  212    56    56
  213    38    38
  214    63    63
  215    21    21
  216     5     5
  217    81    81
  218    71    71
  219    64    64
  220    81    81
  221    45    45
  222    26    26
  223    34    34
  224    95    95
  225    84    84
  226    34    34
  227    28    28
  228    44    44
  229   100   100
  230    35    35
  231    41    41
  232     6     6
  233    70    70
  234    64    64
  235    40    40
  236    82    82
  237    36    36
  238    55    55
  239    79    79
  240     8     8
  241    22    22
  242    90    90
  243    87    87
  244    47    47
  245    26    26
  246    15    15
  247     9     9
  248    40    40
  249    32    32
  250    32    32
  251     1     1
  252     9     9
  253    78    78
  254    65    65
  255    30    30
  256    79    79
  257    17    17
  258    80    80
  259    22    22
  260    97    97
  261     4     4
  262    83    83
  263    24    24
  264    80    80
  265    57    57
  266     5     5
  267    27    27
  268    35    35
  269    55    55
  270    62    62
  271    85    85
  272    80    80
  273    20    20
  274    97    97
  275     9     9
  276    10    10
  277   100   100
  278    20    20
  279    71    71
  280    50    50
  281     6     6
  282    31    31
  283    67    67
  284    41    41
  285    10    10
  286    22    22
  287    10    10
  288     8     8
  289    24    24
  290    61    61
  291     9     9
  292     7     7
  293    93    93
  294    82    82
  295    74    74
  296    48    48
  297     3     3
  298    93    93
  299    53    53
  300    91    91
  301    52    52
  302    45    45
  303    51    51
  304    23    23
  305    12    12
  306    72    72
  307    99    99
  308    16    16
  309    96    96
  310    25    25
  311    79    79
  312    77    77
  313    61    61
  314    78    78
  315    18    18
  316     2     2
  317    52    52
  318    56    56
  319    68    68
  320    26    26
  321    52    52
  322     7     7
  323    49    49
  324    18    18
  325    49    49
  326    51    51
  327    64    64
  328    10    10
  329    48    48
  330    93    93
  331    81    81
  332    62    62
  333    77    77
  334    68    68
  335    98    98
  336    69    69
  337    96    96
  338    27    27
  339    84    84
  340     2     2
  341    77    77
  342    47    47
  343     8     8
  344     7     7
  345    83    83
  346    31    31
  347    36    36
  348    59    59
  349    21    21
  350    16    16
  351    65    65
  352    33    33
  353    37    37
  354    48    48
  355    96    96
  356    23    23
  357    81    81
  358    87    87
  359    26    26
  360    73    73
  361    50    50
  362     8     8
  363    27    27
  364    86    86
  365    15    15
  366    82    82
  367    43    43
  368    30    30
  369    71    71
  370    38    38
  371    28    28
  372    10    10
  373    53    53
  374    46    46
  375    88    88
  376    21    21
  377    78    78
  378    76    76
  379    20    20
  380    36    36
  381    73    73
  382    61    61
  383    25    25
  384    52    52
  385    63    63
  386    14    14
  387    79    79
  388    45    45
  389    60    60
  390    41    41
  391    40    40
  392    18    18
  393    54    54
  394    17    17
  395    36    36
  396     1     1
  397    61    61
  398    31    31
  399    52    52
  400    81    81
  401    37    37
  402    17    17
  403    11    11
  404    18    18
  405    85    85
  406    89    89
  407     1     1
  408    95    95
  409    89    89
  410    67    67
  411     3     3
  412    73    73
  413    99    99
  414    84    84
  415    88    88
  416    96    96
  417     6     6
  418    27    27
  419     8     8
  420    20    20
  421    43    43
  422    22    22
  423    14    14
  424    10    10
  425    85    85
  426    10    10
  427    63    63
  428    70    70
  429    88    88
  430    76    76
  431    10    10
  432    31    31
  433    87    87
  434    84    84
  435    46    46
  436    30    30
  437    84    84
  438    68    68
  439    89    89
  440    32    32
  441    16    16
  442    86    86
  443    15    15
  444    59    59
  445    84    84
  446    68    68
  447    54    54
  448    65    65
  449    98    98
  450    53    53
  451    98    98
  452    52    52
  453    38    38
  454    65    65
  455    36    36
  456    74    74
  457    86    86
  458    37    37
  459    25    25
  460     9     9
  461    72    72
  462    17    17
  463    77    77
  464    12    12
  465    15    15
  466    47    47
  467    57    57
  468    96    96
  469    56    56
  470    76    76
  471     2     2
  472     9     9
  473    52    52
  474    83    83
  475    88    88
  476    53    53
  477     3     3
  478    26    26
  479    51    51
  480    19    19
  481    32    32
  482    30    30
  483    38    38
  484     6     6
  485    76    76
  486    67    67
  487    82    82
  488     9     9
  489    77    77
  490    68    68
  491    41    41
  492    79    79
  493    80    80
  494    73    73
  495    64    64
  496    56    56
  497    19    19
  498    58    58
  499    39    39
  500    78    78
12273
